NAME          
ROWS
 N  OBJ
 L  u1
 L  c2
 L  c3
 L  c4
 L  c5
 L  c6
COLUMNS
    x         u1        1
    x         c2        -25
    x         c3        1
    x         c4        2
    x         c5        -2
    x         OBJ       -1
    y         c2        20
    y         c3        2
    y         c4        -1
    y         c5        -10
    y         c6        1
    y         OBJ       -10
RHS
    rhs       u1        10
    rhs       c2        30
    rhs       c3        10
    rhs       c4        15
    rhs       c5        -15
    rhs       c6        5
RANGES
BOUNDS
 FR bounds    x
 FR bounds    y
ENDATA
